BAYES
196
2 2 2 2 2 2 2 2 2 2 2 2 2 2 2 2 2 2 2 2 2 2 2 2 2 2 2 2 2 2 2 2 2 2 2 2 2 2 2 2 2 2 2 2 2 2 2 2 2 2 2 2 2 2 2 2 2 2 2 2 2 2 2 2 2 2 2 2 2 2 2 2 2 2 2 2 2 2 2 2 2 2 2 2 2 2 2 2 2 2 2 2 2 2 2 2 2 2 2 2 2 2 2 2 2 2 2 2 2 2 2 2 2 2 2 2 2 2 2 2 2 2 2 2 2 2 2 2 2 2 2 2 2 2 2 2 2 2 2 2 2 2 2 2 2 2 2 2 2 2 2 2 2 2 2 2 2 2 2 2 2 2 2 2 2 2 2 2 2 2 2 2 2 2 2 2 2 2 2 2 2 2 2 2 2 2 2 2 2 2 2 2 2 2 2 2
196
1 0
2 0 1
2 1 2
2 2 3
2 3 4
2 4 5
2 5 6
2 6 7
2 7 8
2 8 9
2 9 10
2 10 11
2 11 12
2 12 13
2 0 14
3 1 14 15
3 2 15 16
3 3 16 17
3 4 17 18
3 5 18 19
3 6 19 20
3 7 20 21
3 8 21 22
3 9 22 23
3 10 23 24
3 11 24 25
3 12 25 26
3 13 26 27
2 14 28
3 15 28 29
3 16 29 30
3 17 30 31
3 18 31 32
3 19 32 33
3 20 33 34
3 21 34 35
3 22 35 36
3 23 36 37
3 24 37 38
3 25 38 39
3 26 39 40
3 27 40 41
2 28 42
3 29 42 43
3 30 43 44
3 31 44 45
3 32 45 46
3 33 46 47
3 34 47 48
3 35 48 49
3 36 49 50
3 37 50 51
3 38 51 52
3 39 52 53
3 40 53 54
3 41 54 55
2 42 56
3 43 56 57
3 44 57 58
3 45 58 59
3 46 59 60
3 47 60 61
3 48 61 62
3 49 62 63
3 50 63 64
3 51 64 65
3 52 65 66
3 53 66 67
3 54 67 68
3 55 68 69
2 56 70
3 57 70 71
3 58 71 72
3 59 72 73
3 60 73 74
3 61 74 75
3 62 75 76
3 63 76 77
3 64 77 78
3 65 78 79
3 66 79 80
3 67 80 81
3 68 81 82
3 69 82 83
2 70 84
3 71 84 85
3 72 85 86
3 73 86 87
3 74 87 88
3 75 88 89
3 76 89 90
3 77 90 91
3 78 91 92
3 79 92 93
3 80 93 94
3 81 94 95
3 82 95 96
3 83 96 97
2 84 98
3 85 98 99
3 86 99 100
3 87 100 101
3 88 101 102
3 89 102 103
3 90 103 104
3 91 104 105
3 92 105 106
3 93 106 107
3 94 107 108
3 95 108 109
3 96 109 110
3 97 110 111
2 98 112
3 99 112 113
3 100 113 114
3 101 114 115
3 102 115 116
3 103 116 117
3 104 117 118
3 105 118 119
3 106 119 120
3 107 120 121
3 108 121 122
3 109 122 123
3 110 123 124
3 111 124 125
2 112 126
3 113 126 127
3 114 127 128
3 115 128 129
3 116 129 130
3 117 130 131
3 118 131 132
3 119 132 133
3 120 133 134
3 121 134 135
3 122 135 136
3 123 136 137
3 124 137 138
3 125 138 139
2 126 140
3 127 140 141
3 128 141 142
3 129 142 143
3 130 143 144
3 131 144 145
3 132 145 146
3 133 146 147
3 134 147 148
3 135 148 149
3 136 149 150
3 137 150 151
3 138 151 152
3 139 152 153
2 140 154
3 141 154 155
3 142 155 156
3 143 156 157
3 144 157 158
3 145 158 159
3 146 159 160
3 147 160 161
3 148 161 162
3 149 162 163
3 150 163 164
3 151 164 165
3 152 165 166
3 153 166 167
2 154 168
3 155 168 169
3 156 169 170
3 157 170 171
3 158 171 172
3 159 172 173
3 160 173 174
3 161 174 175
3 162 175 176
3 163 176 177
3 164 177 178
3 165 178 179
3 166 179 180
3 167 180 181
2 168 182
3 169 182 183
3 170 183 184
3 171 184 185
3 172 185 186
3 173 186 187
3 174 187 188
3 175 188 189
3 176 189 190
3 177 190 191
3 178 191 192
3 179 192 193
3 180 193 194
3 181 194 195

2
0.276269 0.723731
4
0.0 1.0 1.0 0.0
4
0.75096 0.24904 0.746354 0.253646
4
1.0 0.0 0.0 1.0
4
0.17252 0.82748 0.478714 0.521286
4
0.256219 0.743781 0.202884 0.797116
4
1.0 0.0 0.0 1.0
4
0.222302 0.777698 0.102382 0.897618
4
0.0 1.0 1.0 0.0
4
0.513955 0.486045 0.912023 0.0879773
4
0.0 1.0 1.0 0.0
4
0.936662 0.0633378 0.668204 0.331796
4
0.487547 0.512453 0.944472 0.0555275
4
0.165667 0.834333 0.748072 0.251928
4
1.0 0.0 0.0 1.0
8
0.897389 0.102611 0.417731 0.582269 0.116331 0.883669 0.376103 0.623897
8
0.0 1.0 0.0 1.0 0.0 1.0 1.0 0.0
8
1.0 0.0 0.0 1.0 0.0 1.0 1.0 0.0
8
0.000371114 0.999629 0.887183 0.112817 0.703655 0.296345 0.469595 0.530405
8
0.640318 0.359682 0.137799 0.862201 0.0725562 0.927444 0.127865 0.872135
8
1.0 0.0 0.0 1.0 0.0 1.0 1.0 0.0
8
0.0 1.0 1.0 0.0 1.0 0.0 1.0 0.0
8
0.852038 0.147962 0.263036 0.736964 0.109131 0.890869 0.279646 0.720354
8
1.0 0.0 1.0 0.0 0.0 1.0 1.0 0.0
8
0.0 1.0 1.0 0.0 1.0 0.0 0.0 1.0
8
0.0 1.0 0.0 1.0 0.0 1.0 1.0 0.0
8
0.190218 0.809782 0.976564 0.0234359 0.365355 0.634645 0.44687 0.55313
8
0.0 1.0 0.0 1.0 0.0 1.0 1.0 0.0
4
1.0 0.0 0.0 1.0
8
1.0 0.0 1.0 0.0 0.0 1.0 1.0 0.0
8
0.159315 0.840685 0.443723 0.556277 0.771357 0.228643 0.37051 0.62949
8
1.0 0.0 1.0 0.0 0.0 1.0 1.0 0.0
8
0.0 1.0 1.0 0.0 1.0 0.0 0.0 1.0
8
0.957124 0.0428762 0.929975 0.0700245 0.682242 0.317758 0.0966334 0.903367
8
0.487643 0.512357 0.126628 0.873372 0.661942 0.338058 0.145081 0.854919
8
0.0 1.0 0.0 1.0 1.0 0.0 1.0 0.0
8
0.214319 0.785681 0.944599 0.055401 0.720163 0.279837 0.58483 0.41517
8
1.0 0.0 0.0 1.0 0.0 1.0 0.0 1.0
8
0.4681 0.5319 0.234281 0.765719 0.486209 0.513791 0.951206 0.0487945
8
0.443333 0.556667 0.881181 0.118819 0.416649 0.583351 0.539966 0.460034
8
1.0 0.0 0.0 1.0 0.0 1.0 1.0 0.0
8
1.0 0.0 1.0 0.0 1.0 0.0 0.0 1.0
4
0.0 1.0 1.0 0.0
8
1.0 0.0 1.0 0.0 0.0 1.0 1.0 0.0
8
1.0 0.0 0.0 1.0 0.0 1.0 1.0 0.0
8
0.873619 0.126381 0.678446 0.321554 0.490005 0.509995 0.316951 0.683049
8
0.906654 0.093346 0.856918 0.143082 0.971695 0.028305 0.810946 0.189054
8
0.0457054 0.954295 0.860319 0.139681 0.609767 0.390233 0.0218446 0.978155
8
0.751025 0.248975 0.498859 0.501141 0.072201 0.927799 0.106602 0.893398
8
0.872708 0.127292 0.0470093 0.952991 0.575757 0.424243 0.956635 0.0433648
8
0.0687257 0.931274 0.215775 0.784225 0.378924 0.621076 0.456135 0.543865
8
0.134522 0.865478 0.329754 0.670246 0.621462 0.378538 0.624526 0.375474
8
0.181089 0.818911 0.53118 0.46882 0.503623 0.496377 0.152784 0.847216
8
0.0 1.0 1.0 0.0 0.0 1.0 0.0 1.0
8
0.0 1.0 1.0 0.0 1.0 0.0 1.0 0.0
8
0.0 1.0 0.0 1.0 1.0 0.0 1.0 0.0
4
0.0 1.0 1.0 0.0
8
1.0 0.0 0.0 1.0 1.0 0.0 0.0 1.0
8
0.0700378 0.929962 0.876099 0.123901 0.537118 0.462882 0.716743 0.283257
8
0.0 1.0 1.0 0.0 0.0 1.0 0.0 1.0
8
1.0 0.0 1.0 0.0 1.0 0.0 0.0 1.0
8
0.272332 0.727668 0.347989 0.652011 0.0736734 0.926327 0.766862 0.233138
8
0.212884 0.787116 0.308401 0.691599 0.203079 0.796921 0.30873 0.69127
8
0.487228 0.512772 0.620352 0.379648 0.485617 0.514383 0.227512 0.772488
8
0.398209 0.601791 0.29755 0.70245 0.751088 0.248912 0.935327 0.0646731
8
0.0 1.0 1.0 0.0 0.0 1.0 0.0 1.0
8
1.0 0.0 0.0 1.0 0.0 1.0 0.0 1.0
8
1.0 0.0 1.0 0.0 0.0 1.0 0.0 1.0
8
1.0 0.0 0.0 1.0 0.0 1.0 0.0 1.0
8
1.0 0.0 0.0 1.0 1.0 0.0 1.0 0.0
4
0.305534 0.694466 0.606521 0.393479
8
0.24086 0.75914 0.620813 0.379187 0.484084 0.515916 0.244486 0.755514
8
0.502333 0.497667 0.658536 0.341464 0.337632 0.662368 0.929044 0.070956
8
0.704196 0.295804 0.984551 0.0154485 0.519545 0.480455 0.343092 0.656908
8
1.0 0.0 1.0 0.0 1.0 0.0 0.0 1.0
8
0.0 1.0 1.0 0.0 1.0 0.0 1.0 0.0
8
0.0 1.0 0.0 1.0 1.0 0.0 0.0 1.0
8
0.0 1.0 1.0 0.0 0.0 1.0 1.0 0.0
8
0.846669 0.153331 0.614007 0.385993 0.241457 0.758543 0.184301 0.815699
8
0.926912 0.0730883 0.888497 0.111503 0.527603 0.472397 0.446457 0.553543
8
1.0 0.0 0.0 1.0 0.0 1.0 0.0 1.0
8
0.0 1.0 0.0 1.0 1.0 0.0 1.0 0.0
8
0.426124 0.573876 0.120207 0.879793 0.28704 0.71296 0.377908 0.622092
8
0.0 1.0 1.0 0.0 1.0 0.0 1.0 0.0
4
1.0 0.0 0.0 1.0
8
0.380595 0.619405 0.67959 0.32041 0.274232 0.725768 0.307506 0.692494
8
0.801835 0.198165 0.753963 0.246037 0.799676 0.200324 0.717487 0.282513
8
0.780115 0.219885 0.412339 0.587661 0.0494525 0.950547 0.223564 0.776436
8
0.0 1.0 1.0 0.0 0.0 1.0 1.0 0.0
8
0.290841 0.709159 0.252543 0.747457 0.889719 0.110281 0.948265 0.0517351
8
0.0 1.0 0.0 1.0 1.0 0.0 1.0 0.0
8
1.0 0.0 1.0 0.0 0.0 1.0 1.0 0.0
8
1.0 0.0 1.0 0.0 0.0 1.0 1.0 0.0
8
0.654867 0.345133 0.919643 0.0803567 0.312289 0.687711 0.70432 0.29568
8
1.0 0.0 1.0 0.0 1.0 0.0 0.0 1.0
8
0.0 1.0 1.0 0.0 1.0 0.0 1.0 0.0
8
0.632706 0.367294 0.913266 0.0867344 0.287602 0.712398 0.724881 0.275119
8
1.0 0.0 1.0 0.0 0.0 1.0 1.0 0.0
4
0.553583 0.446417 0.976027 0.0239729
8
1.0 0.0 0.0 1.0 1.0 0.0 0.0 1.0
8
0.0 1.0 1.0 0.0 0.0 1.0 0.0 1.0
8
0.0 1.0 1.0 0.0 1.0 0.0 0.0 1.0
8
0.911126 0.0888742 0.05981 0.94019 0.140704 0.859296 0.824391 0.175609
8
1.0 0.0 1.0 0.0 0.0 1.0 0.0 1.0
8
0.0 1.0 0.0 1.0 0.0 1.0 1.0 0.0
8
0.0 1.0 0.0 1.0 1.0 0.0 1.0 0.0
8
0.109306 0.890694 0.692702 0.307298 0.867532 0.132468 0.843121 0.156879
8
0.0 1.0 0.0 1.0 1.0 0.0 0.0 1.0
8
1.0 0.0 0.0 1.0 1.0 0.0 0.0 1.0
8
0.0637876 0.936212 0.913245 0.0867552 0.308996 0.691004 0.42602 0.57398
8
0.0 1.0 0.0 1.0 1.0 0.0 0.0 1.0
8
0.294487 0.705513 0.00599509 0.994005 0.869937 0.130063 0.399282 0.600718
4
0.979243 0.0207572 0.0919847 0.908015
8
0.822364 0.177636 0.169308 0.830692 0.636057 0.363943 0.766174 0.233826
8
0.969732 0.0302683 0.0672657 0.932734 0.776307 0.223693 0.214532 0.785468
8
1.0 0.0 1.0 0.0 0.0 1.0 1.0 0.0
8
0.0 1.0 1.0 0.0 0.0 1.0 1.0 0.0
8
1.0 0.0 1.0 0.0 0.0 1.0 0.0 1.0
8
1.0 0.0 0.0 1.0 0.0 1.0 1.0 0.0
8
1.0 0.0 0.0 1.0 1.0 0.0 1.0 0.0
8
0.0 1.0 0.0 1.0 0.0 1.0 1.0 0.0
8
0.0 1.0 0.0 1.0 1.0 0.0 0.0 1.0
8
0.788828 0.211172 0.403685 0.596315 0.266545 0.733455 0.143385 0.856615
8
1.0 0.0 0.0 1.0 1.0 0.0 1.0 0.0
8
0.0 1.0 0.0 1.0 1.0 0.0 1.0 0.0
8
0.274366 0.725634 0.588323 0.411677 0.300575 0.699425 0.568671 0.431329
4
0.626868 0.373132 0.581785 0.418215
8
0.0204264 0.979574 0.371207 0.628793 0.113935 0.886065 0.842152 0.157848
8
0.0 1.0 0.0 1.0 0.0 1.0 1.0 0.0
8
0.0 1.0 0.0 1.0 1.0 0.0 1.0 0.0
8
0.0 1.0 0.0 1.0 1.0 0.0 1.0 0.0
8
0.38636 0.61364 0.161712 0.838288 0.546869 0.453131 0.660725 0.339275
8
0.847444 0.152556 0.229396 0.770604 0.46223 0.53777 0.474311 0.525689
8
0.268029 0.731971 0.494738 0.505262 0.182388 0.817612 0.381964 0.618036
8
0.0 1.0 0.0 1.0 0.0 1.0 1.0 0.0
8
0.341294 0.658706 0.458804 0.541196 0.220387 0.779613 0.830625 0.169375
8
1.0 0.0 1.0 0.0 0.0 1.0 1.0 0.0
8
0.628454 0.371546 0.964371 0.0356294 0.826591 0.173409 0.175323 0.824677
8
0.576626 0.423374 0.0227665 0.977233 0.854492 0.145508 0.0388567 0.961143
8
1.0 0.0 1.0 0.0 0.0 1.0 1.0 0.0
4
0.0 1.0 1.0 0.0
8
0.465956 0.534044 0.42048 0.57952 0.358988 0.641012 0.807251 0.192749
8
0.579375 0.420625 0.637876 0.362124 0.897612 0.102388 0.920395 0.0796049
8
0.0 1.0 1.0 0.0 1.0 0.0 0.0 1.0
8
1.0 0.0 0.0 1.0 1.0 0.0 0.0 1.0
8
0.942365 0.057635 0.348506 0.651494 0.0432735 0.956726 0.608039 0.391961
8
0.0350894 0.964911 0.4561 0.5439 0.344242 0.655758 0.363796 0.636204
8
0.12085 0.87915 0.829752 0.170248 0.0421677 0.957832 0.479838 0.520162
8
0.921451 0.0785489 0.0592127 0.940787 0.274878 0.725122 0.819063 0.180937
8
0.51643 0.48357 0.538715 0.461285 0.478014 0.521986 0.422862 0.577138
8
0.940791 0.0592093 0.155885 0.844115 0.41025 0.58975 0.0286635 0.971337
8
0.0 1.0 0.0 1.0 1.0 0.0 1.0 0.0
8
0.469433 0.530567 0.0348086 0.965191 0.0351676 0.964832 0.813675 0.186325
8
0.0 1.0 0.0 1.0 0.0 1.0 1.0 0.0
4
0.0 1.0 1.0 0.0
8
0.473576 0.526424 0.140237 0.859763 0.439537 0.560463 0.453184 0.546816
8
0.978252 0.0217479 0.931198 0.0688024 0.0795293 0.920471 0.865073 0.134927
8
0.235414 0.764586 0.275323 0.724677 0.900652 0.0993482 0.700949 0.299051
8
1.0 0.0 0.0 1.0 0.0 1.0 0.0 1.0
8
0.266297 0.733703 0.485915 0.514085 0.798097 0.201903 0.664901 0.335099
8
0.0 1.0 1.0 0.0 0.0 1.0 1.0 0.0
8
0.462268 0.537732 0.620561 0.379439 0.898853 0.101147 0.901805 0.0981945
8
1.0 0.0 1.0 0.0 0.0 1.0 1.0 0.0
8
0.876931 0.123069 0.870464 0.129536 0.0204542 0.979546 0.777583 0.222417
8
0.252223 0.747777 0.649263 0.350737 0.0864023 0.913598 0.483711 0.516289
8
0.0 1.0 1.0 0.0 0.0 1.0 1.0 0.0
8
1.0 0.0 1.0 0.0 1.0 0.0 0.0 1.0
8
0.0 1.0 1.0 0.0 1.0 0.0 1.0 0.0
4
0.0 1.0 1.0 0.0
8
0.447779 0.552221 0.156207 0.843793 0.559753 0.440247 0.32471 0.67529
8
1.0 0.0 1.0 0.0 0.0 1.0 0.0 1.0
8
0.684486 0.315514 0.316141 0.683859 0.851567 0.148433 0.755311 0.244689
8
0.0 1.0 1.0 0.0 0.0 1.0 1.0 0.0
8
1.0 0.0 0.0 1.0 0.0 1.0 0.0 1.0
8
0.343398 0.656602 0.821642 0.178358 0.704002 0.295998 0.786234 0.213766
8
0.0 1.0 0.0 1.0 1.0 0.0 1.0 0.0
8
0.525676 0.474324 0.658584 0.341416 0.661016 0.338984 0.12376 0.87624
8
1.0 0.0 0.0 1.0 1.0 0.0 1.0 0.0
8
0.701632 0.298368 0.187789 0.812211 0.354363 0.645637 0.86782 0.13218
8
0.0 1.0 0.0 1.0 0.0 1.0 1.0 0.0
8
1.0 0.0 0.0 1.0 1.0 0.0 1.0 0.0
8
0.0 1.0 0.0 1.0 0.0 1.0 1.0 0.0
4
1.0 0.0 0.0 1.0
8
0.0 1.0 0.0 1.0 1.0 0.0 1.0 0.0
8
0.0 1.0 0.0 1.0 1.0 0.0 1.0 0.0
8
0.0 1.0 0.0 1.0 1.0 0.0 0.0 1.0
8
1.0 0.0 0.0 1.0 1.0 0.0 1.0 0.0
8
0.0 1.0 0.0 1.0 1.0 0.0 0.0 1.0
8
0.673799 0.326201 0.650852 0.349148 0.545303 0.454697 0.98404 0.0159598
8
0.878827 0.121173 0.955297 0.0447027 0.152042 0.847958 0.703366 0.296634
8
0.0 1.0 1.0 0.0 0.0 1.0 1.0 0.0
8
0.336696 0.663304 0.829107 0.170893 0.699418 0.300582 0.554116 0.445884
8
1.0 0.0 1.0 0.0 1.0 0.0 0.0 1.0
8
0.193023 0.806977 0.528688 0.471312 0.845693 0.154307 0.115305 0.884695
8
0.716055 0.283945 0.789104 0.210896 0.167353 0.832647 0.261357 0.738643
8
0.00692023 0.99308 0.140185 0.859815 0.728441 0.271559 0.158962 0.841038